s td 21 2 24
b 1 1 11
b 2 6 12
b 3 11 12
b 4 12
b 5 2
b 6 3
b 7 4
b 8 5 19
b 9 7 22
b 10 7 23
b 11 23 24
b 12 8
b 13 9 10
b 14 13
b 15 14
b 16 15
b 17 16
b 18 17
b 19 18
b 20 20
b 21 21
1 3
1 5
1 6
1 7
1 8
1 9
1 12
1 13
1 14
1 15
1 16
1 17
1 18
1 19
1 20
1 21
2 4
3 4
9 10
10 11
